week_length = 7;
nb_workers = 13;
min_daysoff = 1;
max_daysoff = 4;
min_work = 3;
max_work = 7;
nb_shifts = 3;
shift_name = ["D", "A", "N"];
shift_block_min = [2, 2, 2];
shift_block_max = [6, 6, 4];
nb_forbidden = 3;
forbidden_before = [3, 3, 2];
forbidden_after = [1, 2, 1];
temp_req = array2d(1..3,1..7,[5, 5, 5, 5, 5, 5, 0, 5, 5, 5, 5, 5, 5, 0, 1, 1, 1, 1, 1, 0, 0]);
